1	1	1	1	1	1	1	1	1
2	2	2	2	2	2	2	2	2
3	5	6	10	6	6	6	1	3
4	5	6	10	6	6	3	2	3
5	5	6	10	10	6	10	2	3
6	5	6	20	20	6	20	2	3
7	5	12	20	20	6	20	2	3
8	5	12	30	30	6	30	4	3
9	5	16	40	40	6	40	4	3
10	5	16	50	50	6	50	4	3